TITL anthracene Marciniak2002_fcf_header_P21n
    marciniak2002_fcf_headerless_p21n.res
    created by SHELXL-2016/6 at 13:04:33 on 25-Sep-2019
CELL 0.71069 8.553 6.021 22.333 90 124.54 90
ZERR 4 0.002 0.001 0.004 0 0.03 0
LATT 1
SYMM 0.5-X,0.5+Y,0.5-Z
SFAC C H
UNIT 56 40

L.S. 5 0 0
PLAN  5
fmap 2 53
MORE -1
BOND $H
CONF
REM <olex2.extras>
REM <HklSrc "%./Marciniak2002_fcf_headerless_P21n.hkl">
REM </olex2.extras>

WGHT    0.100000
FVAR       0.04950
C1A   1    0.113368    0.072632    0.183393     1.31299    0.05641    0.12705 =
         0.15604   -0.13528    0.09164   -0.07330
C2A   1    0.092810    0.142466    0.113828     0.96636    0.11783    0.21109 =
         0.09813    0.01886    0.10341   -0.02535
C3A   1    0.052056    0.062505    0.064284     0.65945    0.09803    0.00482 =
         0.10300   -0.02441    0.09776   -0.02381
C4A   1    0.093068    0.199880    0.012952     0.82127    0.00238    0.00597 =
         0.30625   -0.04629   -0.03281    0.00486
C5A   1   -0.036113   -0.141500    0.044522     0.69139    0.00870    0.00903 =
         0.11628   -0.03429    0.03316   -0.00986
C6A   1   -0.040455   -0.198108    0.125053     0.69342    0.10603    0.01129 =
         0.19934    0.04961    0.14587    0.03626
C7A   1    0.000830   -0.175406    0.183622     0.98344    0.08177    0.22372 =
         0.10789   -0.15486   -0.09056    0.13412
H1A   2    0.196352   -0.266655    0.185221     1.38987    0.13602
H2A   2    0.365573    0.293236    0.095274     4.00000    0.39121
H4A   2    1.402214    1.251699   -4.000000    -4.00000   -0.00100
H6A   2    0.443456    0.228170   -0.265162     2.95273    0.89478
H7A   2    0.552516   -0.298232    0.248646    -0.01703    0.23787
C1B   1    0.542425    0.442896    0.067203     0.65441    0.05610    0.06944 =
         0.05937   -0.02073   -0.00487   -0.05850
C2B   1    0.498989    0.654841    0.045862     0.44077    0.32169    0.09915 =
         0.09242    0.09283    0.16834    0.17954
C3B   1    0.480355    0.689921    0.144570     0.77660    0.07757    0.11082 =
         0.18096   -0.13601    0.06026   -0.02115
C4B   1    0.571560    0.483839    0.182448     1.04406    0.11234    0.00028 =
         0.14981    0.01391    0.13018    0.01206
C5B   1    0.421462    0.794394    0.090571     0.86956    0.23410    0.12517 =
         0.06422    0.08634    0.10255    0.10725
C6B   1    0.638173    0.311528    0.146835     1.35977    0.11147    0.25317 =
         0.04611   -0.05953    0.07121   -0.06704
C7B   1    0.565297    0.292406    0.018218     0.78851    0.05756    0.04786 =
         0.07820    0.03926    0.04518   -0.00807
H3B   2    0.310492    0.740380    0.155942     0.67845    0.65205
H4B   2    0.849431    0.464368    0.439661    -1.23207   -0.00100
H5B   2    0.280301    1.048939    0.044986     1.76811    0.00875
H6B   2    0.216582    0.235541    0.107880     3.82916    0.06910
H7B   2    2.773341    4.000000    2.482332    -0.41734    2.00000
HKLF 4




REM  anthracene Marciniak2002_fcf_header_P21n
REM R1 =  0.1394 for      11 Fo > 4sig(Fo)  and  0.7594 for all     235 data
REM    191 parameters refined using      0 restraints

END  
     
WGHT      0.2000      0.0000 

REM Highest difference peak  0.107,  deepest hole -0.104,  1-sigma level  0.037
Q1    1  -0.1820  0.1767  0.0484  11.00000  0.05    0.11
Q2    1   2.6659  3.7893  2.4402  11.00000  0.05    0.10
Q3    1   1.3096  1.2697 -4.0051  11.00000  0.05    0.10
Q4    1   0.2180  0.7545  0.0805  11.00000  0.05    0.09
Q5    1   0.3486  0.1279 -0.3441  11.00000  0.05    0.09
