TITL 
CELL 0.71069 8.553 6.021 18.849 90 102.59 90
ZERR 4 0.002 0.001 0.004 0 0.03 0
LATT -1
SFAC C H
UNIT 56 40

L.S. 4
PLAN  20
FMAP 2
WGHT 0.1
FVAR 1
REM <olex2.extras>
REM <HklSrc
REM  "%/media/norwid2/tDebian10/home/norwid/olex2/2019-09-25_ANTCEN17_03/ANTC
REM EN17_hkl.hkl">
REM </olex2.extras>

HKLF 4

END
